17	4	3
14	9	15	17	22	57	30	
0	0	0	0	0	3	2	9	4	5	10	3	2	3	4
4	0	9	0	0	6	6	2	1	10	8	3	5	12	17
5	0	0	7	0	10	6	5	2	6	10	2	9	15
10	2	0	0	0	1	10	4	6	4	4	3	6	7	10
8	0	0	0	8	7	8	10	1	4	9	3	8	14	17
200	0	0	0	6	7	7	10	5	10	4	2	13	14
125	0	0	9	0	5	5	10	6	6	10	3	15	16	17
175	0	0	6	0	3	5	5	8	6	1	1	13
200	0	0	0	3	7	7	10	10	2	4	2	14	17
75	0	0	0	1	4	8	1	4	9	5	3	11	15	17
225	0	2	0	0	2	5	1	1	10	10	1	17
75	0	0	0	9	5	4	5	4	10	10	1	17
6	0	0	2	0	3	3	4	8	10	10	1	17
6	0	5	0	0	8	7	6	8	7	8	2	16	17
8	0	0	0	6	1	1	5	2	4	4	1	17
6	0	0	8	0	7	5	8	7	6	8	1	17
0	0	0	0	0	7	10	2	2	4	1	0
